attachment/milp/3-assignment/assignment-basic.dat
data;

set Workers := W1 W2 W3 W4 W5 W6 W7;
set Tasks := T1 T2 T3 T4 T5 T6 T7;

param Cost:
		T1	T2	T3	T4	T5	T6	T7 :=
	W1	9	6	10	10	8	7	11
	W2	7	12	6	14	10	5	5
	W3	8	9	7	11	10	15	6
	W4	4	10	2	10	6	4	7
	W5	10	11	7	12	14	9	10
	W6	5	9	8	9	13	3	8
	W7	7	12	7	7	11	10	9
	;

end;
